CPXPARAM_TimeLimit                               1800
CPXPARAM_Read_DataCheck                          1
CPXPARAM_MIP_Strategy_HeuristicFreq              -1
Parallel mode: deterministic, using up to 8 threads for concurrent optimization.
Tried aggregator 1 time.
LP Presolve eliminated 653 rows and 182700 columns.
Reduced LP has 39817 rows, 6976 columns, and 118334 nonzeros.
Presolve time = 0.03 sec. (51.15 ticks)

Iteration log . . .
Iteration:     1   Dual objective     =          1056.000000
Perturbation started.
Iteration:   807   Dual objective     =          1056.000000
Iteration:  1039   Dual objective     =          1056.004704
Initializing dual steep norms . . .
Iteration:  1040   Dual objective     =          1056.004946
Iteration:  1597   Dual objective     =          1056.005800
Iteration:  2154   Dual objective     =          1056.007253
Iteration:  2759   Dual objective     =          1056.009785
Iteration:  3293   Dual objective     =          1056.013937
Iteration:  3885   Dual objective     =          1056.016791
Iteration:  4402   Dual objective     =          1056.018767
Iteration:  4749   Dual objective     =          1056.020633
Iteration:  5064   Dual objective     =          1056.023021
Iteration:  5407   Dual objective     =          1056.026280
Iteration:  5758   Dual objective     =          1056.029618
Iteration:  6186   Dual objective     =          1056.032297
Iteration:  6522   Dual objective     =          1056.039387
Iteration:  6963   Dual objective     =          1056.042117
Iteration:  7390   Dual objective     =          1056.048031
Iteration:  7816   Dual objective     =          1056.049209
Iteration:  8202   Dual objective     =          1056.052007
Iteration:  8615   Dual objective     =          1056.052943
Iteration:  8978   Dual objective     =          1056.055042
Iteration:  9439   Dual objective     =          1056.056029
Iteration:  9828   Dual objective     =          1056.057219
Iteration: 10216   Dual objective     =          1056.059137
Iteration: 10594   Dual objective     =          1056.064246
Iteration: 11049   Dual objective     =          1056.068144
Iteration: 11456   Dual objective     =          1056.073947
Iteration: 11999   Dual objective     =          1056.085653
Removing perturbation.

Barrier solved model.

